14
-1 77 73 70 63 68 92 85 2 80 13 27 2 99
27 -1 43 24 23 72 61 81 3 32 5 93 25 31
92 42 -1 86 64 87 60 13 74 70 70 35 33 11
60 96 67 -1 50 40 94 95 24 19 25 76 94 58
2 71 66 78 -1 51 84 18 64 19 52 87 60 26
10 57 70 15 76 -1 43 58 64 9 82 86 65 87
77 74 25 27 29 28 -1 20 2 62 23 96 37 61
95 25 64 60 2 16 30 -1 11 71 11 47 53 20
90 24 88 63 40 51 62 29 -1 58 78 65 7 77
58 39 3 60 57 24 77 8 13 -1 1 50 60 28
93 84 5 40 11 4 35 56 72 50 -1 85 56 16
26 57 26 57 37 71 69 61 96 22 17 -1 17 96
85 41 23 29 29 65 59 32 96 55 53 62 -1 34
54 72 57 69 32 63 7 83 11 35 67 48 75 -1